nCaps = 10;
task = [9,10];
noAgents = 5;
capabilities = [{9,10},{7,8,5,4,2,6,1,3},{9,10},{7,8,5,4,2,6,1,3},{}];
isConnected = [|
false,false,false,false,true |
false,false,false,false,true |
false,false,false,false,true |
false,false,false,false,true |
true,true,true,true,false |];
